<number of tasks>
50

<cycle time>
1000

<order strength>
0.198


<task times>
1 120
2 91
3 41
4 123
5 41
6 181
7 136
8 324
9 26
10 57
11 45
12 26
13 159
14 182
15 106
16 43
17 27
18 233
19 136
20 177
21 92
22 150
23 131
24 59
25 172
26 21
27 93
28 78
29 190
30 235
31 157
32 26
33 86
34 204
35 35
36 63
37 99
38 44
39 121
40 112
41 102
42 288
43 112
44 49
45 160
46 159
47 84
48 243
49 136
50 155

<precedence relations>
1,11
1,14
2,23
3,10
4,8
5,9
6,7
6,12
6,13
7,15
7,18
7,21
7,23
8,24
9,19
9,20
11,17
11,22
12,23
14,16
17,28
17,38
18,24
18,26
19,27
19,29
23,25
23,41
24,31
24,32
26,32
29,30
29,44
30,34
31,33
31,35
31,36
32,33
32,37
33,41
33,45
34,38
34,45
36,40
36,44
37,39
37,42
37,43
38,46
39,49
40,50
41,47
42,47
42,48

<end>
